0 2904
1 2904
2 2593
3 2593
4 2527
5 2496
6 2443
7 2443
8 2443
9 2431
10 2372
11 2321
12 2321
13 2321
14 2284
15 2284
16 2263
17 2263
18 2263
19 2234
20 2234
21 2234
22 2234
23 2223
24 2205
25 2197
26 2163
27 2157
28 2157
29 2157
30 2116
31 2099
32 2099
33 2077
34 2077
35 2077
36 2077
37 2071
38 2071
39 2071
40 2071
41 2071
42 2071
43 2071
44 2071
45 2071
46 2035
47 2035
48 2035
49 2035
50 2035
51 2035
52 2035
53 2024
54 2024
55 2024
56 2021
57 2021
58 2021
59 2021
60 2021
61 2007
62 2001
63 2001
64 2000
65 2000
66 1998
67 1998
68 1998
69 1985
70 1985
71 1985
72 1985
73 1985
74 1973
75 1973
76 1973
77 1973
78 1969
79 1969
80 1967
81 1958
82 1958
83 1958
84 1958
85 1958
86 1958
87 1958
88 1958
89 1958
90 1958
91 1958
92 1945
93 1945
94 1945
95 1945
96 1945
97 1945
98 1945
99 1945
100 1945
101 1938
102 1938
103 1938
104 1938
105 1938
106 1930
107 1930
108 1930
109 1930
110 1930
111 1930
112 1930
113 1930
114 1930
115 1930
116 1912
117 1912
118 1912
119 1912
120 1912
121 1912
122 1912
123 1912
124 1906
125 1906
126 1906
127 1906
128 1901
129 1901
130 1901
131 1901
132 1901
133 1899
134 1899
135 1899
136 1899
137 1899
138 1899
139 1899
140 1888
141 1888
142 1888
143 1888
144 1879
145 1879
146 1868
147 1868
148 1868
149 1868
150 1851
151 1851
152 1851
153 1851
154 1851
155 1825
156 1825
157 1825
158 1825
159 1825
160 1825
161 1825
162 1825
163 1825
164 1825
165 1820
166 1820
167 1820
168 1820
169 1820
170 1820
171 1820
172 1820
173 1820
174 1820
175 1820
176 1820
177 1820
178 1820
179 1820
180 1820
181 1820
182 1820
183 1820
184 1820
185 1820
186 1820
187 1820
188 1820
189 1814
190 1814
191 1814
192 1814
193 1814
194 1814
195 1814
196 1814
197 1814
198 1814
199 1814
200 1814
201 1814
202 1814
203 1814
204 1814
205 1814
206 1814
207 1814
208 1814
209 1814
210 1814
211 1814
212 1814
213 1814
214 1814
215 1814
216 1814
217 1814
218 1814
219 1814
220 1814
221 1814
222 1814
223 1814
224 1814
225 1814
226 1802
227 1802
228 1802
229 1802
230 1802
231 1802
232 1802
233 1802
234 1802
235 1802
236 1802
237 1802
238 1802
239 1802
240 1802
241 1802
242 1802
243 1802
244 1802
245 1802
246 1802
247 1802
248 1802
249 1802
250 1802
251 1802
252 1802
253 1802
254 1802
255 1802
256 1802
257 1802
258 1802
259 1802
260 1802
261 1802
262 1802
263 1802
264 1802
265 1802
266 1802
267 1802
268 1802
269 1802
270 1802
271 1802
272 1802
273 1802
274 1802
275 1802
276 1802
277 1802
278 1802
279 1802
280 1802
281 1802
282 1802
283 1802
284 1802
285 1802
286 1802
287 1802
288 1802
289 1802
290 1802
291 1802
292 1802
293 1802
294 1802
295 1802
296 1802
297 1802
298 1802
299 1802
300 1802
301 1802
302 1802
303 1802
304 1802
305 1802
306 1802
307 1802
308 1802
309 1802
310 1802
311 1802
312 1802
313 1802
314 1802
315 1802
316 1802
317 1802
318 1802
319 1802
320 1802
321 1802
322 1802
323 1802
324 1802
325 1802
326 1802
327 1802
328 1802
329 1802
330 1802
331 1802
332 1802
333 1802
334 1802
335 1802
336 1802
337 1802
338 1802
339 1802
340 1802
341 1802
342 1802
343 1802
344 1802
345 1802
346 1802
347 1802
348 1802
349 1802
350 1802
351 1802
352 1802
353 1802
354 1802
355 1802
356 1802
357 1802
358 1802
359 1802
360 1802
361 1793
362 1793
363 1793
364 1793
365 1793
366 1793
367 1793
368 1793
369 1793
370 1793
371 1793
372 1793
373 1793
374 1793
375 1793
376 1793
377 1793
378 1793
379 1793
380 1793
381 1793
382 1793
383 1793
384 1793
385 1793
386 1793
387 1793
388 1790
389 1790
390 1784
391 1784
392 1784
393 1784
394 1784
395 1784
396 1784
397 1784
398 1784
399 1782
400 1782
401 1782
402 1782
403 1782
404 1782
405 1782
406 1782
407 1782
408 1782
409 1782
410 1782
411 1782
412 1782
413 1782
414 1782
415 1782
416 1782
417 1782
418 1782
419 1782
420 1782
421 1782
422 1782
423 1782
424 1782
425 1782
426 1782
427 1782
428 1782
429 1782
430 1782
431 1782
432 1782
433 1782
434 1782
435 1782
436 1782
437 1782
438 1782
439 1782
440 1782
441 1782
442 1782
443 1782
444 1782
445 1782
446 1782
447 1782
448 1782
449 1782
450 1782
451 1782
452 1782
453 1782
454 1782
455 1782
456 1782
457 1782
458 1782
459 1782
460 1782
461 1782
462 1782
463 1782
464 1782
465 1782
466 1782
467 1782
468 1782
469 1782
470 1782
471 1782
472 1782
473 1782
474 1782
475 1782
476 1782
477 1782
478 1782
479 1782
480 1782
481 1782
482 1782
483 1782
484 1782
485 1782
486 1782
487 1782
488 1782
489 1782
490 1782
491 1782
492 1782
493 1782
494 1782
495 1782
496 1782
497 1782
498 1782
499 1782
500 1782
501 1782
502 1782
503 1782
504 1782
505 1782
506 1782
507 1782
508 1782
509 1782
510 1782
511 1782
512 1782
513 1782
514 1782
515 1782
516 1782
517 1782
518 1782
519 1782
520 1782
521 1782
522 1782
523 1782
524 1782
525 1782
526 1782
527 1782
528 1782
529 1782
530 1782
531 1782
532 1782
533 1782
534 1782
535 1782
536 1782
537 1782
538 1782
539 1782
540 1782
541 1782
542 1782
543 1782
544 1782
545 1782
546 1782
547 1782
548 1782
549 1782
550 1782
551 1782
552 1782
553 1782
554 1782
555 1782
556 1782
557 1782
558 1782
559 1782
560 1782
561 1782
562 1782
563 1782
564 1782
565 1782
566 1782
567 1782
568 1782
569 1782
570 1782
571 1782
572 1782
573 1782
574 1782
575 1782
576 1782
577 1782
578 1782
579 1782
580 1782
581 1782
582 1782
583 1782
584 1782
585 1782
586 1782
587 1782
588 1782
589 1782
590 1782
591 1782
592 1782
593 1782
594 1782
595 1782
596 1782
597 1782
598 1782
599 1782
600 1782
601 1782
602 1782
603 1782
604 1782
605 1782
606 1782
607 1782
608 1782
609 1782
610 1782
611 1782
612 1782
613 1782
614 1779
615 1779
616 1779
617 1779
618 1779
619 1779
620 1779
621 1779
622 1779
623 1779
624 1779
625 1779
626 1779
627 1779
628 1779
629 1779
630 1779
631 1779
632 1779
633 1779
634 1779
635 1779
636 1779
637 1779
638 1779
639 1779
640 1779
641 1779
642 1779
643 1778
644 1778
645 1778
646 1778
647 1778
648 1778
649 1778
650 1778
651 1778
652 1778
653 1778
654 1778
655 1778
656 1778
657 1778
658 1778
659 1778
660 1778
661 1778
662 1778
663 1778
664 1778
665 1778
666 1778
667 1778
668 1778
669 1778
670 1778
671 1778
672 1778
673 1778
674 1778
675 1778
676 1778
677 1778
678 1778
679 1778
680 1778
681 1770
682 1770
683 1770
684 1765
685 1765
686 1765
687 1765
688 1765
689 1765
690 1765
691 1765
692 1765
693 1765
694 1765
695 1765
696 1765
697 1765
698 1765
699 1765
700 1765
701 1765
702 1765
703 1765
704 1765
705 1765
706 1765
707 1765
708 1765
709 1765
710 1765
711 1765
712 1765
713 1765
714 1765
715 1765
716 1765
717 1765
718 1765
719 1765
720 1765
721 1765
722 1765
723 1765
724 1765
725 1765
726 1765
727 1765
728 1765
729 1765
730 1765
731 1765
732 1765
733 1765
734 1765
735 1765
736 1765
737 1765
738 1765
739 1765
740 1765
741 1757
742 1757
743 1757
744 1757
745 1757
746 1757
747 1757
748 1757
749 1757
750 1757
751 1757
752 1757
753 1757
754 1757
755 1757
756 1757
757 1757
758 1757
759 1757
760 1757
761 1757
762 1757
763 1757
764 1757
765 1757
766 1755
767 1755
768 1755
769 1755
770 1755
771 1755
772 1755
773 1755
774 1755
775 1755
776 1755
777 1755
778 1755
779 1755
780 1755
781 1755
782 1755
783 1755
784 1755
785 1755
786 1747
787 1747
788 1747
789 1747
790 1747
791 1747
792 1747
793 1747
794 1747
795 1747
796 1747
797 1747
798 1747
799 1747
800 1747
801 1747
802 1747
803 1747
804 1747
805 1747
806 1747
807 1747
808 1747
809 1747
810 1747
811 1747
812 1747
813 1747
814 1747
815 1747
816 1747
817 1737
818 1737
819 1737
820 1737
821 1737
822 1737
823 1737
824 1737
825 1734
826 1734
827 1734
828 1734
829 1734
830 1734
831 1734
832 1734
833 1734
834 1734
835 1734
836 1734
837 1734
838 1734
839 1734
840 1734
841 1734
842 1734
843 1734
844 1734
845 1734
846 1734
847 1733
848 1733
849 1733
850 1733
851 1733
852 1733
853 1733
854 1733
855 1733
856 1733
857 1733
858 1733
859 1733
860 1733
861 1733
862 1733
863 1733
864 1733
865 1733
866 1733
867 1733
868 1733
869 1733
870 1733
871 1733
872 1733
873 1733
874 1733
875 1733
876 1733
877 1733
878 1733
879 1733
880 1733
881 1733
882 1733
883 1733
884 1733
885 1733
886 1733
887 1733
888 1733
889 1733
890 1733
891 1733
892 1733
893 1733
894 1733
895 1733
896 1733
897 1733
898 1733
899 1733
900 1733
901 1733
902 1729
903 1729
904 1729
905 1729
906 1729
907 1729
908 1729
909 1729
910 1729
911 1729
912 1729
913 1729
914 1729
915 1729
916 1729
917 1729
918 1729
919 1729
920 1729
921 1729
922 1728
923 1728
924 1728
925 1728
926 1728
927 1728
928 1728
929 1728
930 1728
931 1728
932 1728
933 1728
934 1728
935 1728
936 1728
937 1728
938 1728
939 1728
940 1728
941 1728
942 1728
943 1728
944 1728
945 1728
946 1726
947 1726
948 1726
949 1726
950 1726
951 1726
952 1726
953 1726
954 1726
955 1726
956 1726
957 1726
958 1726
959 1726
960 1726
961 1726
962 1726
963 1726
964 1726
965 1726
966 1726
967 1726
968 1726
969 1726
970 1726
971 1726
972 1726
973 1726
974 1726
975 1726
976 1726
977 1726
978 1726
979 1726
980 1726
981 1726
982 1726
983 1726
984 1726
985 1726
986 1726
987 1726
988 1726
989 1726
990 1726
991 1726
992 1726
993 1726
994 1726
995 1726
996 1726
997 1726
998 1726
999 1726
Best: [[8,28,26,11,22,34,6,4,35],
       [5,12,13,23,24,29,3,10,32],
       [19,27,31,16,33,14],
       [15,7,37,30,25,17],
       [21,9,2,20,18,36]], fitness: 1726
